c 17_4_checker_5cl.cnf
c
c field = 17
c formula set type = 4_checker_5cl
c
p cnf 5 6
30 
34 
36 
38 
-40 
31 
35 
37 
39 
-41 
2 
62 
92 
122 
-152 
3 
63 
93 
123 
-153 
0 
64 
96 
128 
-160 
1 
65 
97 
129 
-161 
